* #variable= 1907 #constraint= 974 
+1 x1865 = 0 ;
+1 x122 -1 x522 = 0 ;
+1 x522 -1 x802 = 0 ;
+1 x802 -1 x1002 = 0 ;
+1 x1002 -1 x1149 = 0 ;
+1 x1149 -1 x1260 = 0 ;
+1 x1260 -1 x1349 = 0 ;
+1 x1425 +2 x1445 +4 x1465 +8 x1485 +16 x1505 +32 x1525 +64 x1545 +128 x1565 +256 x1585 +512 x1605 +1024 x1625 +2048 x1645 +4096 x1665 +8192 x1685 +16384 x1705 +32768 x1725 +65536 x1745 +131072 x1765 +262144 x1785 +524288 x1805 +2 x1426 +4 x1446 +8 x1466 +16 x1486 +32 x1506 +64 x1526 +128 x1546 +256 x1566 +512 x1586 +1024 x1606 +2048 x1626 +4096 x1646 +8192 x1666 +16384 x1686 +32768 x1706 +65536 x1726 +131072 x1746 +262144 x1766 +524288 x1786 +1048576 x1806 +4 x1427 +8 x1447 +16 x1467 +32 x1487 +64 x1507 +128 x1527 +256 x1547 +512 x1567 +1024 x1587 +2048 x1607 +4096 x1627 +8192 x1647 +16384 x1667 +32768 x1687 +65536 x1707 +131072 x1727 +262144 x1747 +524288 x1767 +1048576 x1787 +2097152 x1807 +8 x1428 +16 x1448 +32 x1468 +64 x1488 +128 x1508 +256 x1528 +512 x1548 +1024 x1568 +2048 x1588 +4096 x1608 +8192 x1628 +16384 x1648 +32768 x1668 +65536 x1688 +131072 x1708 +262144 x1728 +524288 x1748 +1048576 x1768 +2097152 x1788 +4194304 x1808 +16 x1429 +32 x1449 +64 x1469 +128 x1489 +256 x1509 +512 x1529 +1024 x1549 +2048 x1569 +4096 x1589 +8192 x1609 +16384 x1629 +32768 x1649 +65536 x1669 +131072 x1689 +262144 x1709 +524288 x1729 +1048576 x1749 +2097152 x1769 +4194304 x1789 +8388608 x1809 +32 x1430 +64 x1450 +128 x1470 +256 x1490 +512 x1510 +1024 x1530 +2048 x1550 +4096 x1570 +8192 x1590 +16384 x1610 +32768 x1630 +65536 x1650 +131072 x1670 +262144 x1690 +524288 x1710 +1048576 x1730 +2097152 x1750 +4194304 x1770 +8388608 x1790 +16777216 x1810 +64 x1431 +128 x1451 +256 x1471 +512 x1491 +1024 x1511 +2048 x1531 +4096 x1551 +8192 x1571 +16384 x1591 +32768 x1611 +65536 x1631 +131072 x1651 +262144 x1671 +524288 x1691 +1048576 x1711 +2097152 x1731 +4194304 x1751 +8388608 x1771 +16777216 x1791 +33554432 x1811 +128 x1432 +256 x1452 +512 x1472 +1024 x1492 +2048 x1512 +4096 x1532 +8192 x1552 +16384 x1572 +32768 x1592 +65536 x1612 +131072 x1632 +262144 x1652 +524288 x1672 +1048576 x1692 +2097152 x1712 +4194304 x1732 +8388608 x1752 +16777216 x1772 +33554432 x1792 +67108864 x1812 +256 x1433 +512 x1453 +1024 x1473 +2048 x1493 +4096 x1513 +8192 x1533 +16384 x1553 +32768 x1573 +65536 x1593 +131072 x1613 +262144 x1633 +524288 x1653 +1048576 x1673 +2097152 x1693 +4194304 x1713 +8388608 x1733 +16777216 x1753 +33554432 x1773 +67108864 x1793 +134217728 x1813 +512 x1434 +1024 x1454 +2048 x1474 +4096 x1494 +8192 x1514 +16384 x1534 +32768 x1554 +65536 x1574 +131072 x1594 +262144 x1614 +524288 x1634 +1048576 x1654 +2097152 x1674 +4194304 x1694 +8388608 x1714 +16777216 x1734 +33554432 x1754 +67108864 x1774 +134217728 x1794 +268435456 x1814 +1024 x1435 +2048 x1455 +4096 x1475 +8192 x1495 +16384 x1515 +32768 x1535 +65536 x1555 +131072 x1575 +262144 x1595 +524288 x1615 +1048576 x1635 +2097152 x1655 +4194304 x1675 +8388608 x1695 +16777216 x1715 +33554432 x1735 +67108864 x1755 +134217728 x1775 +268435456 x1795 +536870912 x1815 +2048 x1436 +4096 x1456 +8192 x1476 +16384 x1496 +32768 x1516 +65536 x1536 +131072 x1556 +262144 x1576 +524288 x1596 +1048576 x1616 +2097152 x1636 +4194304 x1656 +8388608 x1676 +16777216 x1696 +33554432 x1716 +67108864 x1736 +134217728 x1756 +268435456 x1776 +536870912 x1796 +1073741824 x1816 +4096 x1437 +8192 x1457 +16384 x1477 +32768 x1497 +65536 x1517 +131072 x1537 +262144 x1557 +524288 x1577 +1048576 x1597 +2097152 x1617 +4194304 x1637 +8388608 x1657 +16777216 x1677 +33554432 x1697 +67108864 x1717 +134217728 x1737 +268435456 x1757 +536870912 x1777 +1073741824 x1797 +2147483648 x1817 +8192 x1438 +16384 x1458 +32768 x1478 +65536 x1498 +131072 x1518 +262144 x1538 +524288 x1558 +1048576 x1578 +2097152 x1598 +4194304 x1618 +8388608 x1638 +16777216 x1658 +33554432 x1678 +67108864 x1698 +134217728 x1718 +268435456 x1738 +536870912 x1758 +1073741824 x1778 +2147483648 x1798 +4294967296 x1818 +16384 x1439 +32768 x1459 +65536 x1479 +131072 x1499 +262144 x1519 +524288 x1539 +1048576 x1559 +2097152 x1579 +4194304 x1599 +8388608 x1619 +16777216 x1639 +33554432 x1659 +67108864 x1679 +134217728 x1699 +268435456 x1719 +536870912 x1739 +1073741824 x1759 +2147483648 x1779 +4294967296 x1799 +8589934592 x1819 +32768 x1440 +65536 x1460 +131072 x1480 +262144 x1500 +524288 x1520 +1048576 x1540 +2097152 x1560 +4194304 x1580 +8388608 x1600 +16777216 x1620 +33554432 x1640 +67108864 x1660 +134217728 x1680 +268435456 x1700 +536870912 x1720 +1073741824 x1740 +2147483648 x1760 +4294967296 x1780 +8589934592 x1800 +17179869184 x1820 +65536 x1441 +131072 x1461 +262144 x1481 +524288 x1501 +1048576 x1521 +2097152 x1541 +4194304 x1561 +8388608 x1581 +16777216 x1601 +33554432 x1621 +67108864 x1641 +134217728 x1661 +268435456 x1681 +536870912 x1701 +1073741824 x1721 +2147483648 x1741 +4294967296 x1761 +8589934592 x1781 +17179869184 x1801 +34359738368 x1821 +131072 x1442 +262144 x1462 +524288 x1482 +1048576 x1502 +2097152 x1522 +4194304 x1542 +8388608 x1562 +16777216 x1582 +33554432 x1602 +67108864 x1622 +134217728 x1642 +268435456 x1662 +536870912 x1682 +1073741824 x1702 +2147483648 x1722 +4294967296 x1742 +8589934592 x1762 +17179869184 x1782 +34359738368 x1802 +68719476736 x1822 +262144 x1443 +524288 x1463 +1048576 x1483 +2097152 x1503 +4194304 x1523 +8388608 x1543 +16777216 x1563 +33554432 x1583 +67108864 x1603 +134217728 x1623 +268435456 x1643 +536870912 x1663 +1073741824 x1683 +2147483648 x1703 +4294967296 x1723 +8589934592 x1743 +17179869184 x1763 +34359738368 x1783 +68719476736 x1803 +137438953472 x1823 +524288 x1444 +1048576 x1464 +2097152 x1484 +4194304 x1504 +8388608 x1524 +16777216 x1544 +33554432 x1564 +67108864 x1584 +134217728 x1604 +268435456 x1624 +536870912 x1644 +1073741824 x1664 +2147483648 x1684 +4294967296 x1704 +8589934592 x1724 +17179869184 x1744 +34359738368 x1764 +68719476736 x1784 +137438953472 x1804 +274877906944 x1824 -1 x42 -2 x43 -4 x44 -8 x45 -16 x46 -32 x47 -64 x48 -128 x49 -256 x50 -512 x51 -1024 x52 -2048 x53 -4096 x54 -8192 x55 -16384 x56 -32768 x57 -65536 x58 -131072 x59 -262144 x60 -524288 x61 -1048576 x62 -2097152 x63 -4194304 x64 -8388608 x65 -16777216 x66 -33554432 x67 -67108864 x68 -134217728 x69 -268435456 x70 -536870912 x71 -1073741824 x72 -2147483648 x73 -4294967296 x74 -8589934592 x75 -17179869184 x76 -34359738368 x77 -68719476736 x78 -137438953472 x79 -274877906944 x80 -549755813888 x81 = 0; 
+1 x42 -1 x1 +2 x43 -2 x2 +4 x44 -4 x3 +8 x45 -8 x4 +16 x46 -16 x5 +32 x47 -32 x6 +64 x48 -64 x7 +128 x49 -128 x8 +256 x50 -256 x9 +512 x51 -512 x10 +1024 x52 -1024 x11 +2048 x53 -2048 x12 +4096 x54 -4096 x13 +8192 x55 -8192 x14 +16384 x56 -16384 x15 +32768 x57 -32768 x16 +65536 x58 -65536 x17 +131072 x59 -131072 x18 +262144 x60 -262144 x19 +524288 x61 -524288 x20 +1048576 x62 -1048576 x21 +2097152 x63 -2097152 x22 +4194304 x64 -4194304 x23 +8388608 x65 -8388608 x24 +16777216 x66 -16777216 x25 +33554432 x67 -33554432 x26 +67108864 x68 -67108864 x27 +134217728 x69 -134217728 x28 +268435456 x70 -268435456 x29 +536870912 x71 -536870912 x30 +1073741824 x72 -1073741824 x31 +2147483648 x73 -2147483648 x32 +4294967296 x74 -4294967296 x33 +8589934592 x75 -8589934592 x34 +17179869184 x76 -17179869184 x35 +34359738368 x77 -34359738368 x36 +68719476736 x78 -68719476736 x37 +137438953472 x79 -137438953472 x38 +274877906944 x80 -274877906944 x39 +549755813888 x81 -549755813888 x40 >= 1 ;
+1 x1866 = 0 ;
+2 x523 +1 x524 -1 x124 -1 x123 = 0 ;
+1 x524 -1 x803 = 0 ;
+1 x803 -1 x1003 = 0 ;
+1 x1003 -1 x1150 = 0 ;
+1 x1150 -1 x1261 = 0 ;
+1 x1261 -1 x1350 = 0 ;
+1 x1867 = 0 ;
+2 x525 +1 x526 -1 x127 -1 x125 -1 x126 = 0 ;
+2 x804 +1 x805 -1 x523 -1 x526 = 0 ;
+1 x805 -1 x1004 = 0 ;
+1 x1004 -1 x1151 = 0 ;
+1 x1151 -1 x1262 = 0 ;
+1 x1262 -1 x1351 = 0 ;
+1 x1868 = 0 ;
+2 x527 +1 x528 -1 x130 -1 x128 -1 x129 = 0 ;
+1 x131 -1 x598 = 0 ;
+2 x806 +1 x807 -1 x598 -1 x528 -1 x525 = 0 ;
+2 x1005 +1 x1006 -1 x804 -1 x807 = 0 ;
+1 x1006 -1 x1152 = 0 ;
+1 x1152 -1 x1263 = 0 ;
+1 x1263 -1 x1352 = 0 ;
+1 x1869 = 0 ;
+2 x529 +1 x530 -1 x134 -1 x132 -1 x133 = 0 ;
+2 x599 +1 x600 -1 x136 -1 x135 = 0 ;
+2 x808 +1 x809 -1 x600 -1 x530 -1 x527 = 0 ;
+2 x1007 +1 x1008 -1 x806 -1 x809 = 0 ;
+2 x1153 +1 x1154 -1 x1005 -1 x1008 = 0 ;
+1 x1154 -1 x1264 = 0 ;
+1 x1264 -1 x1353 = 0 ;
+1 x1870 = 0 ;
+2 x531 +1 x532 -1 x139 -1 x137 -1 x138 = 0 ;
+2 x601 +1 x602 -1 x142 -1 x140 -1 x141 = 0 ;
+2 x810 +1 x811 -1 x602 -1 x532 -1 x529 = 0 ;
+1 x599 -1 x878 = 0 ;
+2 x1009 +1 x1010 -1 x878 -1 x811 -1 x808 = 0 ;
+2 x1155 +1 x1156 -1 x1007 -1 x1010 = 0 ;
+2 x1265 +1 x1266 -1 x1153 -1 x1156 = 0 ;
+1 x1266 -1 x1354 = 0 ;
+1 x1871 = 0 ;
+2 x533 +1 x534 -1 x145 -1 x143 -1 x144 = 0 ;
+2 x603 +1 x604 -1 x148 -1 x146 -1 x147 = 0 ;
+1 x149 -1 x662 = 0 ;
+2 x812 +1 x813 -1 x604 -1 x534 -1 x531 = 0 ;
+2 x879 +1 x880 -1 x662 -1 x601 = 0 ;
+2 x1011 +1 x1012 -1 x880 -1 x813 -1 x810 = 0 ;
+2 x1157 +1 x1158 -1 x1009 -1 x1012 = 0 ;
+2 x1267 +1 x1268 -1 x1155 -1 x1158 = 0 ;
+2 x1355 +1 x1356 -1 x1265 -1 x1268 = 0 ;
+1 x1872 = 0 ;
+2 x535 +1 x536 -1 x152 -1 x150 -1 x151 = 0 ;
+2 x605 +1 x606 -1 x155 -1 x153 -1 x154 = 0 ;
+2 x663 +1 x664 -1 x157 -1 x156 = 0 ;
+2 x814 +1 x815 -1 x606 -1 x536 -1 x533 = 0 ;
+2 x881 +1 x882 -1 x664 -1 x603 = 0 ;
+2 x1013 +1 x1014 -1 x882 -1 x815 -1 x812 = 0 ;
+1 x879 -1 x1078 = 0 ;
+2 x1159 +1 x1160 -1 x1078 -1 x1014 -1 x1011 = 0 ;
+2 x1269 +1 x1270 -1 x1157 -1 x1160 = 0 ;
+2 x1357 +1 x1358 -1 x1267 -1 x1270 = 0 ;
+1 x1873 = 0 ;
+2 x537 +1 x538 -1 x160 -1 x158 -1 x159 = 0 ;
+2 x607 +1 x608 -1 x163 -1 x161 -1 x162 = 0 ;
+2 x665 +1 x666 -1 x166 -1 x164 -1 x165 = 0 ;
+2 x816 +1 x817 -1 x608 -1 x538 -1 x535 = 0 ;
+2 x883 +1 x884 -1 x663 -1 x605 -1 x666 = 0 ;
+2 x1015 +1 x1016 -1 x884 -1 x817 -1 x814 = 0 ;
+1 x881 -1 x1079 = 0 ;
+2 x1161 +1 x1162 -1 x1079 -1 x1016 -1 x1013 = 0 ;
+2 x1271 +1 x1272 -1 x1159 -1 x1162 = 0 ;
+2 x1359 +1 x1360 -1 x1269 -1 x1272 = 0 ;
+1 x1874 = 0 ;
+2 x539 +1 x540 -1 x169 -1 x167 -1 x168 = 0 ;
+2 x609 +1 x610 -1 x172 -1 x170 -1 x171 = 0 ;
+2 x667 +1 x668 -1 x175 -1 x173 -1 x174 = 0 ;
+1 x176 -1 x714 = 0 ;
+2 x818 +1 x819 -1 x610 -1 x540 -1 x537 = 0 ;
+2 x885 +1 x886 -1 x665 -1 x607 -1 x668 = 0 ;
+1 x714 -1 x936 = 0 ;
+2 x1017 +1 x1018 -1 x886 -1 x819 -1 x816 = 0 ;
+2 x1080 +1 x1081 -1 x936 -1 x883 = 0 ;
+2 x1163 +1 x1164 -1 x1081 -1 x1018 -1 x1015 = 0 ;
+2 x1273 +1 x1274 -1 x1161 -1 x1164 = 0 ;
+2 x1361 +1 x1362 -1 x1271 -1 x1274 = 0 ;
+1 x1875 = 0 ;
+2 x541 +1 x542 -1 x179 -1 x177 -1 x178 = 0 ;
+2 x611 +1 x612 -1 x182 -1 x180 -1 x181 = 0 ;
+2 x669 +1 x670 -1 x185 -1 x183 -1 x184 = 0 ;
+2 x715 +1 x716 -1 x187 -1 x186 = 0 ;
+2 x820 +1 x821 -1 x612 -1 x542 -1 x539 = 0 ;
+2 x887 +1 x888 -1 x667 -1 x609 -1 x670 = 0 ;
+1 x716 -1 x937 = 0 ;
+2 x1019 +1 x1020 -1 x888 -1 x821 -1 x818 = 0 ;
+2 x1082 +1 x1083 -1 x937 -1 x885 = 0 ;
+2 x1165 +1 x1166 -1 x1083 -1 x1020 -1 x1017 = 0 ;
+1 x1080 -1 x1225 = 0 ;
+2 x1275 +1 x1276 -1 x1225 -1 x1166 -1 x1163 = 0 ;
+2 x1363 +1 x1364 -1 x1273 -1 x1276 = 0 ;
+1 x1876 = 0 ;
+2 x543 +1 x544 -1 x190 -1 x188 -1 x189 = 0 ;
+2 x613 +1 x614 -1 x193 -1 x191 -1 x192 = 0 ;
+2 x671 +1 x672 -1 x196 -1 x194 -1 x195 = 0 ;
+2 x717 +1 x718 -1 x199 -1 x197 -1 x198 = 0 ;
+2 x822 +1 x823 -1 x614 -1 x544 -1 x541 = 0 ;
+2 x889 +1 x890 -1 x669 -1 x611 -1 x672 = 0 ;
+2 x938 +1 x939 -1 x715 -1 x718 = 0 ;
+2 x1021 +1 x1022 -1 x890 -1 x823 -1 x820 = 0 ;
+2 x1084 +1 x1085 -1 x939 -1 x887 = 0 ;
+2 x1167 +1 x1168 -1 x1085 -1 x1022 -1 x1019 = 0 ;
+1 x1082 -1 x1226 = 0 ;
+2 x1277 +1 x1278 -1 x1226 -1 x1168 -1 x1165 = 0 ;
+2 x1365 +1 x1366 -1 x1275 -1 x1278 = 0 ;
+1 x1877 = 0 ;
+2 x545 +1 x546 -1 x202 -1 x200 -1 x201 = 0 ;
+2 x615 +1 x616 -1 x205 -1 x203 -1 x204 = 0 ;
+2 x673 +1 x674 -1 x208 -1 x206 -1 x207 = 0 ;
+2 x719 +1 x720 -1 x211 -1 x209 -1 x210 = 0 ;
+1 x212 -1 x754 = 0 ;
+2 x824 +1 x825 -1 x616 -1 x546 -1 x543 = 0 ;
+2 x891 +1 x892 -1 x671 -1 x613 -1 x674 = 0 ;
+2 x940 +1 x941 -1 x754 -1 x720 -1 x717 = 0 ;
+2 x1023 +1 x1024 -1 x892 -1 x825 -1 x822 = 0 ;
+2 x1086 +1 x1087 -1 x938 -1 x889 -1 x941 = 0 ;
+2 x1169 +1 x1170 -1 x1087 -1 x1024 -1 x1021 = 0 ;
+1 x1084 -1 x1227 = 0 ;
+2 x1279 +1 x1280 -1 x1227 -1 x1170 -1 x1167 = 0 ;
+2 x1367 +1 x1368 -1 x1277 -1 x1280 = 0 ;
+1 x1878 = 0 ;
+2 x547 +1 x548 -1 x215 -1 x213 -1 x214 = 0 ;
+2 x617 +1 x618 -1 x218 -1 x216 -1 x217 = 0 ;
+2 x675 +1 x676 -1 x221 -1 x219 -1 x220 = 0 ;
+2 x721 +1 x722 -1 x224 -1 x222 -1 x223 = 0 ;
+2 x755 +1 x756 -1 x226 -1 x225 = 0 ;
+2 x826 +1 x827 -1 x618 -1 x548 -1 x545 = 0 ;
+2 x893 +1 x894 -1 x673 -1 x615 -1 x676 = 0 ;
+2 x942 +1 x943 -1 x756 -1 x722 -1 x719 = 0 ;
+2 x1025 +1 x1026 -1 x894 -1 x827 -1 x824 = 0 ;
+2 x1088 +1 x1089 -1 x940 -1 x891 -1 x943 = 0 ;
+2 x1171 +1 x1172 -1 x1089 -1 x1026 -1 x1023 = 0 ;
+1 x1086 -1 x1228 = 0 ;
+2 x1281 +1 x1282 -1 x1228 -1 x1172 -1 x1169 = 0 ;
+2 x1369 +1 x1370 -1 x1279 -1 x1282 = 0 ;
+1 x1879 = 0 ;
+2 x549 +1 x550 -1 x229 -1 x227 -1 x228 = 0 ;
+2 x619 +1 x620 -1 x232 -1 x230 -1 x231 = 0 ;
+2 x677 +1 x678 -1 x235 -1 x233 -1 x234 = 0 ;
+2 x723 +1 x724 -1 x238 -1 x236 -1 x237 = 0 ;
+2 x757 +1 x758 -1 x241 -1 x239 -1 x240 = 0 ;
+2 x828 +1 x829 -1 x620 -1 x550 -1 x547 = 0 ;
+2 x895 +1 x896 -1 x675 -1 x617 -1 x678 = 0 ;
+2 x944 +1 x945 -1 x758 -1 x724 -1 x721 = 0 ;
+1 x755 -1 x976 = 0 ;
+2 x1027 +1 x1028 -1 x896 -1 x829 -1 x826 = 0 ;
+2 x1090 +1 x1091 -1 x942 -1 x893 -1 x945 = 0 ;
+1 x976 -1 x1127 = 0 ;
+2 x1173 +1 x1174 -1 x1091 -1 x1028 -1 x1025 = 0 ;
+2 x1229 +1 x1230 -1 x1127 -1 x1088 = 0 ;
+2 x1283 +1 x1284 -1 x1230 -1 x1174 -1 x1171 = 0 ;
+2 x1371 +1 x1372 -1 x1281 -1 x1284 = 0 ;
+1 x1880 = 0 ;
+2 x551 +1 x552 -1 x244 -1 x242 -1 x243 = 0 ;
+2 x621 +1 x622 -1 x247 -1 x245 -1 x246 = 0 ;
+2 x679 +1 x680 -1 x250 -1 x248 -1 x249 = 0 ;
+2 x725 +1 x726 -1 x253 -1 x251 -1 x252 = 0 ;
+2 x759 +1 x760 -1 x256 -1 x254 -1 x255 = 0 ;
+1 x257 -1 x782 = 0 ;
+2 x830 +1 x831 -1 x622 -1 x552 -1 x549 = 0 ;
+2 x897 +1 x898 -1 x677 -1 x619 -1 x680 = 0 ;
+2 x946 +1 x947 -1 x760 -1 x726 -1 x723 = 0 ;
+2 x977 +1 x978 -1 x782 -1 x757 = 0 ;
+2 x1029 +1 x1030 -1 x898 -1 x831 -1 x828 = 0 ;
+2 x1092 +1 x1093 -1 x944 -1 x895 -1 x947 = 0 ;
+1 x978 -1 x1128 = 0 ;
+2 x1175 +1 x1176 -1 x1093 -1 x1030 -1 x1027 = 0 ;
+2 x1231 +1 x1232 -1 x1128 -1 x1090 = 0 ;
+2 x1285 +1 x1286 -1 x1232 -1 x1176 -1 x1173 = 0 ;
+1 x1229 -1 x1336 = 0 ;
+2 x1373 +1 x1374 -1 x1336 -1 x1286 -1 x1283 = 0 ;
+1 x1881 = 0 ;
+2 x553 +1 x554 -1 x260 -1 x258 -1 x259 = 0 ;
+2 x623 +1 x624 -1 x263 -1 x261 -1 x262 = 0 ;
+2 x681 +1 x682 -1 x266 -1 x264 -1 x265 = 0 ;
+2 x727 +1 x728 -1 x269 -1 x267 -1 x268 = 0 ;
+2 x761 +1 x762 -1 x272 -1 x270 -1 x271 = 0 ;
+2 x783 +1 x784 -1 x274 -1 x273 = 0 ;
+2 x832 +1 x833 -1 x624 -1 x554 -1 x551 = 0 ;
+2 x899 +1 x900 -1 x679 -1 x621 -1 x682 = 0 ;
+2 x948 +1 x949 -1 x762 -1 x728 -1 x725 = 0 ;
+2 x979 +1 x980 -1 x784 -1 x759 = 0 ;
+2 x1031 +1 x1032 -1 x900 -1 x833 -1 x830 = 0 ;
+2 x1094 +1 x1095 -1 x946 -1 x897 -1 x949 = 0 ;
+2 x1129 +1 x1130 -1 x977 -1 x980 = 0 ;
+2 x1177 +1 x1178 -1 x1095 -1 x1032 -1 x1029 = 0 ;
+2 x1233 +1 x1234 -1 x1130 -1 x1092 = 0 ;
+2 x1287 +1 x1288 -1 x1234 -1 x1178 -1 x1175 = 0 ;
+1 x1231 -1 x1337 = 0 ;
+2 x1375 +1 x1376 -1 x1337 -1 x1288 -1 x1285 = 0 ;
+1 x1882 = 0 ;
+2 x555 +1 x556 -1 x277 -1 x275 -1 x276 = 0 ;
+2 x625 +1 x626 -1 x280 -1 x278 -1 x279 = 0 ;
+2 x683 +1 x684 -1 x283 -1 x281 -1 x282 = 0 ;
+2 x729 +1 x730 -1 x286 -1 x284 -1 x285 = 0 ;
+2 x763 +1 x764 -1 x289 -1 x287 -1 x288 = 0 ;
+2 x785 +1 x786 -1 x292 -1 x290 -1 x291 = 0 ;
+2 x834 +1 x835 -1 x626 -1 x556 -1 x553 = 0 ;
+2 x901 +1 x902 -1 x681 -1 x623 -1 x684 = 0 ;
+2 x950 +1 x951 -1 x764 -1 x730 -1 x727 = 0 ;
+2 x981 +1 x982 -1 x783 -1 x761 -1 x786 = 0 ;
+2 x1033 +1 x1034 -1 x902 -1 x835 -1 x832 = 0 ;
+2 x1096 +1 x1097 -1 x948 -1 x899 -1 x951 = 0 ;
+2 x1131 +1 x1132 -1 x979 -1 x982 = 0 ;
+2 x1179 +1 x1180 -1 x1097 -1 x1034 -1 x1031 = 0 ;
+2 x1235 +1 x1236 -1 x1129 -1 x1094 -1 x1132 = 0 ;
+2 x1289 +1 x1290 -1 x1236 -1 x1180 -1 x1177 = 0 ;
+1 x1233 -1 x1338 = 0 ;
+2 x1377 +1 x1378 -1 x1338 -1 x1290 -1 x1287 = 0 ;
+1 x1883 = 0 ;
+2 x557 +1 x558 -1 x295 -1 x293 -1 x294 = 0 ;
+2 x627 +1 x628 -1 x298 -1 x296 -1 x297 = 0 ;
+2 x685 +1 x686 -1 x301 -1 x299 -1 x300 = 0 ;
+2 x731 +1 x732 -1 x304 -1 x302 -1 x303 = 0 ;
+2 x765 +1 x766 -1 x307 -1 x305 -1 x306 = 0 ;
+2 x787 +1 x788 -1 x310 -1 x308 -1 x309 = 0 ;
+1 x311 -1 x798 = 0 ;
+2 x836 +1 x837 -1 x628 -1 x558 -1 x555 = 0 ;
+2 x903 +1 x904 -1 x683 -1 x625 -1 x686 = 0 ;
+2 x952 +1 x953 -1 x766 -1 x732 -1 x729 = 0 ;
+2 x983 +1 x984 -1 x785 -1 x763 -1 x788 = 0 ;
+1 x798 -1 x998 = 0 ;
+2 x1035 +1 x1036 -1 x904 -1 x837 -1 x834 = 0 ;
+2 x1098 +1 x1099 -1 x950 -1 x901 -1 x953 = 0 ;
+2 x1133 +1 x1134 -1 x998 -1 x984 -1 x981 = 0 ;
+2 x1181 +1 x1182 -1 x1099 -1 x1036 -1 x1033 = 0 ;
+2 x1237 +1 x1238 -1 x1131 -1 x1096 -1 x1134 = 0 ;
+2 x1291 +1 x1292 -1 x1238 -1 x1182 -1 x1179 = 0 ;
+1 x1235 -1 x1339 = 0 ;
+2 x1379 +1 x1380 -1 x1339 -1 x1292 -1 x1289 = 0 ;
+1 x1884 = 0 ;
+2 x559 +1 x560 -1 x314 -1 x312 -1 x313 = 0 ;
+2 x629 +1 x630 -1 x317 -1 x315 -1 x316 = 0 ;
+2 x687 +1 x688 -1 x320 -1 x318 -1 x319 = 0 ;
+2 x733 +1 x734 -1 x323 -1 x321 -1 x322 = 0 ;
+2 x767 +1 x768 -1 x326 -1 x324 -1 x325 = 0 ;
+2 x789 +1 x790 -1 x329 -1 x327 -1 x328 = 0 ;
+2 x799 +1 x800 -1 x331 -1 x330 = 0 ;
+2 x838 +1 x839 -1 x630 -1 x560 -1 x557 = 0 ;
+2 x905 +1 x906 -1 x685 -1 x627 -1 x688 = 0 ;
+2 x954 +1 x955 -1 x768 -1 x734 -1 x731 = 0 ;
+2 x985 +1 x986 -1 x787 -1 x765 -1 x790 = 0 ;
+1 x800 -1 x999 = 0 ;
+2 x1037 +1 x1038 -1 x906 -1 x839 -1 x836 = 0 ;
+2 x1100 +1 x1101 -1 x952 -1 x903 -1 x955 = 0 ;
+2 x1135 +1 x1136 -1 x999 -1 x986 -1 x983 = 0 ;
+2 x1183 +1 x1184 -1 x1101 -1 x1038 -1 x1035 = 0 ;
+2 x1239 +1 x1240 -1 x1133 -1 x1098 -1 x1136 = 0 ;
+2 x1293 +1 x1294 -1 x1240 -1 x1184 -1 x1181 = 0 ;
+1 x1237 -1 x1340 = 0 ;
+2 x1381 +1 x1382 -1 x1340 -1 x1294 -1 x1291 = 0 ;
+1 x1885 = 0 ;
+2 x561 +1 x562 -1 x334 -1 x332 -1 x333 = 0 ;
+2 x631 +1 x632 -1 x337 -1 x335 -1 x336 = 0 ;
+2 x689 +1 x690 -1 x340 -1 x338 -1 x339 = 0 ;
+2 x735 +1 x736 -1 x343 -1 x341 -1 x342 = 0 ;
+2 x769 +1 x770 -1 x346 -1 x344 -1 x345 = 0 ;
+2 x791 +1 x792 -1 x349 -1 x347 -1 x348 = 0 ;
+1 x350 -1 x801 = 0 ;
+2 x840 +1 x841 -1 x632 -1 x562 -1 x559 = 0 ;
+2 x907 +1 x908 -1 x687 -1 x629 -1 x690 = 0 ;
+2 x956 +1 x957 -1 x770 -1 x736 -1 x733 = 0 ;
+2 x987 +1 x988 -1 x789 -1 x767 -1 x792 = 0 ;
+2 x1000 +1 x1001 -1 x799 -1 x801 = 0 ;
+2 x1039 +1 x1040 -1 x908 -1 x841 -1 x838 = 0 ;
+2 x1102 +1 x1103 -1 x954 -1 x905 -1 x957 = 0 ;
+2 x1137 +1 x1138 -1 x1001 -1 x988 -1 x985 = 0 ;
+2 x1185 +1 x1186 -1 x1103 -1 x1040 -1 x1037 = 0 ;
+2 x1241 +1 x1242 -1 x1135 -1 x1100 -1 x1138 = 0 ;
+2 x1295 +1 x1296 -1 x1242 -1 x1186 -1 x1183 = 0 ;
+1 x1239 -1 x1341 = 0 ;
+2 x1383 +1 x1384 -1 x1341 -1 x1296 -1 x1293 = 0 ;
+1 x1886 = 0 ;
+2 x563 +1 x564 -1 x353 -1 x351 -1 x352 = 0 ;
+2 x633 +1 x634 -1 x356 -1 x354 -1 x355 = 0 ;
+2 x691 +1 x692 -1 x359 -1 x357 -1 x358 = 0 ;
+2 x737 +1 x738 -1 x362 -1 x360 -1 x361 = 0 ;
+2 x771 +1 x772 -1 x365 -1 x363 -1 x364 = 0 ;
+2 x793 +1 x794 -1 x368 -1 x366 -1 x367 = 0 ;
+2 x842 +1 x843 -1 x634 -1 x564 -1 x561 = 0 ;
+2 x909 +1 x910 -1 x689 -1 x631 -1 x692 = 0 ;
+2 x958 +1 x959 -1 x772 -1 x738 -1 x735 = 0 ;
+2 x989 +1 x990 -1 x791 -1 x769 -1 x794 = 0 ;
+2 x1041 +1 x1042 -1 x910 -1 x843 -1 x840 = 0 ;
+2 x1104 +1 x1105 -1 x956 -1 x907 -1 x959 = 0 ;
+2 x1139 +1 x1140 -1 x1000 -1 x990 -1 x987 = 0 ;
+2 x1187 +1 x1188 -1 x1105 -1 x1042 -1 x1039 = 0 ;
+2 x1243 +1 x1244 -1 x1137 -1 x1102 -1 x1140 = 0 ;
+2 x1297 +1 x1298 -1 x1244 -1 x1188 -1 x1185 = 0 ;
+1 x1241 -1 x1342 = 0 ;
+2 x1385 +1 x1386 -1 x1342 -1 x1298 -1 x1295 = 0 ;
+1 x1887 = 0 ;
+2 x565 +1 x566 -1 x371 -1 x369 -1 x370 = 0 ;
+2 x635 +1 x636 -1 x374 -1 x372 -1 x373 = 0 ;
+2 x693 +1 x694 -1 x377 -1 x375 -1 x376 = 0 ;
+2 x739 +1 x740 -1 x380 -1 x378 -1 x379 = 0 ;
+2 x773 +1 x774 -1 x383 -1 x381 -1 x382 = 0 ;
+2 x795 +1 x796 -1 x385 -1 x384 = 0 ;
+2 x844 +1 x845 -1 x636 -1 x566 -1 x563 = 0 ;
+2 x911 +1 x912 -1 x691 -1 x633 -1 x694 = 0 ;
+2 x960 +1 x961 -1 x774 -1 x740 -1 x737 = 0 ;
+2 x991 +1 x992 -1 x793 -1 x771 -1 x796 = 0 ;
+2 x1043 +1 x1044 -1 x912 -1 x845 -1 x842 = 0 ;
+2 x1106 +1 x1107 -1 x958 -1 x909 -1 x961 = 0 ;
+2 x1141 +1 x1142 -1 x989 -1 x992 = 0 ;
+2 x1189 +1 x1190 -1 x1107 -1 x1044 -1 x1041 = 0 ;
+2 x1245 +1 x1246 -1 x1139 -1 x1104 -1 x1142 = 0 ;
+2 x1299 +1 x1300 -1 x1246 -1 x1190 -1 x1187 = 0 ;
+1 x1243 -1 x1343 = 0 ;
+2 x1387 +1 x1388 -1 x1343 -1 x1300 -1 x1297 = 0 ;
+1 x1888 = 0 ;
+2 x567 +1 x568 -1 x388 -1 x386 -1 x387 = 0 ;
+2 x637 +1 x638 -1 x391 -1 x389 -1 x390 = 0 ;
+2 x695 +1 x696 -1 x394 -1 x392 -1 x393 = 0 ;
+2 x741 +1 x742 -1 x397 -1 x395 -1 x396 = 0 ;
+2 x775 +1 x776 -1 x400 -1 x398 -1 x399 = 0 ;
+1 x401 -1 x797 = 0 ;
+2 x846 +1 x847 -1 x638 -1 x568 -1 x565 = 0 ;
+2 x913 +1 x914 -1 x693 -1 x635 -1 x696 = 0 ;
+2 x962 +1 x963 -1 x776 -1 x742 -1 x739 = 0 ;
+2 x993 +1 x994 -1 x795 -1 x773 -1 x797 = 0 ;
+2 x1045 +1 x1046 -1 x914 -1 x847 -1 x844 = 0 ;
+2 x1108 +1 x1109 -1 x960 -1 x911 -1 x963 = 0 ;
+2 x1143 +1 x1144 -1 x991 -1 x994 = 0 ;
+2 x1191 +1 x1192 -1 x1109 -1 x1046 -1 x1043 = 0 ;
+2 x1247 +1 x1248 -1 x1141 -1 x1106 -1 x1144 = 0 ;
+2 x1301 +1 x1302 -1 x1248 -1 x1192 -1 x1189 = 0 ;
+1 x1245 -1 x1344 = 0 ;
+2 x1389 +1 x1390 -1 x1344 -1 x1302 -1 x1299 = 0 ;
+1 x1889 = 0 ;
+2 x569 +1 x570 -1 x404 -1 x402 -1 x403 = 0 ;
+2 x639 +1 x640 -1 x407 -1 x405 -1 x406 = 0 ;
+2 x697 +1 x698 -1 x410 -1 x408 -1 x409 = 0 ;
+2 x743 +1 x744 -1 x413 -1 x411 -1 x412 = 0 ;
+2 x777 +1 x778 -1 x416 -1 x414 -1 x415 = 0 ;
+2 x848 +1 x849 -1 x640 -1 x570 -1 x567 = 0 ;
+2 x915 +1 x916 -1 x695 -1 x637 -1 x698 = 0 ;
+2 x964 +1 x965 -1 x778 -1 x744 -1 x741 = 0 ;
+1 x775 -1 x995 = 0 ;
+2 x1047 +1 x1048 -1 x916 -1 x849 -1 x846 = 0 ;
+2 x1110 +1 x1111 -1 x962 -1 x913 -1 x965 = 0 ;
+2 x1145 +1 x1146 -1 x993 -1 x995 = 0 ;
+2 x1193 +1 x1194 -1 x1111 -1 x1048 -1 x1045 = 0 ;
+2 x1249 +1 x1250 -1 x1143 -1 x1108 -1 x1146 = 0 ;
+2 x1303 +1 x1304 -1 x1250 -1 x1194 -1 x1191 = 0 ;
+1 x1247 -1 x1345 = 0 ;
+2 x1391 +1 x1392 -1 x1345 -1 x1304 -1 x1301 = 0 ;
+1 x1890 = 0 ;
+2 x571 +1 x572 -1 x419 -1 x417 -1 x418 = 0 ;
+2 x641 +1 x642 -1 x422 -1 x420 -1 x421 = 0 ;
+2 x699 +1 x700 -1 x425 -1 x423 -1 x424 = 0 ;
+2 x745 +1 x746 -1 x428 -1 x426 -1 x427 = 0 ;
+2 x779 +1 x780 -1 x430 -1 x429 = 0 ;
+2 x850 +1 x851 -1 x642 -1 x572 -1 x569 = 0 ;
+2 x917 +1 x918 -1 x697 -1 x639 -1 x700 = 0 ;
+2 x966 +1 x967 -1 x780 -1 x746 -1 x743 = 0 ;
+1 x777 -1 x996 = 0 ;
+2 x1049 +1 x1050 -1 x918 -1 x851 -1 x848 = 0 ;
+2 x1112 +1 x1113 -1 x964 -1 x915 -1 x967 = 0 ;
+1 x996 -1 x1147 = 0 ;
+2 x1195 +1 x1196 -1 x1113 -1 x1050 -1 x1047 = 0 ;
+2 x1251 +1 x1252 -1 x1145 -1 x1110 -1 x1147 = 0 ;
+2 x1305 +1 x1306 -1 x1252 -1 x1196 -1 x1193 = 0 ;
+1 x1249 -1 x1346 = 0 ;
+2 x1393 +1 x1394 -1 x1346 -1 x1306 -1 x1303 = 0 ;
+1 x1891 = 0 ;
+2 x573 +1 x574 -1 x433 -1 x431 -1 x432 = 0 ;
+2 x643 +1 x644 -1 x436 -1 x434 -1 x435 = 0 ;
+2 x701 +1 x702 -1 x439 -1 x437 -1 x438 = 0 ;
+2 x747 +1 x748 -1 x442 -1 x440 -1 x441 = 0 ;
+1 x443 -1 x781 = 0 ;
+2 x852 +1 x853 -1 x644 -1 x574 -1 x571 = 0 ;
+2 x919 +1 x920 -1 x699 -1 x641 -1 x702 = 0 ;
+2 x968 +1 x969 -1 x781 -1 x748 -1 x745 = 0 ;
+1 x779 -1 x997 = 0 ;
+2 x1051 +1 x1052 -1 x920 -1 x853 -1 x850 = 0 ;
+2 x1114 +1 x1115 -1 x966 -1 x917 -1 x969 = 0 ;
+1 x997 -1 x1148 = 0 ;
+2 x1197 +1 x1198 -1 x1115 -1 x1052 -1 x1049 = 0 ;
+2 x1253 +1 x1254 -1 x1148 -1 x1112 = 0 ;
+2 x1307 +1 x1308 -1 x1254 -1 x1198 -1 x1195 = 0 ;
+1 x1251 -1 x1347 = 0 ;
+2 x1395 +1 x1396 -1 x1347 -1 x1308 -1 x1305 = 0 ;
+1 x1892 = 0 ;
+2 x575 +1 x576 -1 x446 -1 x444 -1 x445 = 0 ;
+2 x645 +1 x646 -1 x449 -1 x447 -1 x448 = 0 ;
+2 x703 +1 x704 -1 x452 -1 x450 -1 x451 = 0 ;
+2 x749 +1 x750 -1 x455 -1 x453 -1 x454 = 0 ;
+2 x854 +1 x855 -1 x646 -1 x576 -1 x573 = 0 ;
+2 x921 +1 x922 -1 x701 -1 x643 -1 x704 = 0 ;
+2 x970 +1 x971 -1 x747 -1 x750 = 0 ;
+2 x1053 +1 x1054 -1 x922 -1 x855 -1 x852 = 0 ;
+2 x1116 +1 x1117 -1 x968 -1 x919 -1 x971 = 0 ;
+2 x1199 +1 x1200 -1 x1117 -1 x1054 -1 x1051 = 0 ;
+1 x1114 -1 x1255 = 0 ;
+2 x1309 +1 x1310 -1 x1255 -1 x1200 -1 x1197 = 0 ;
+1 x1253 -1 x1348 = 0 ;
+2 x1397 +1 x1398 -1 x1348 -1 x1310 -1 x1307 = 0 ;
+1 x1893 = 0 ;
+2 x577 +1 x578 -1 x458 -1 x456 -1 x457 = 0 ;
+2 x647 +1 x648 -1 x461 -1 x459 -1 x460 = 0 ;
+2 x705 +1 x706 -1 x464 -1 x462 -1 x463 = 0 ;
+2 x751 +1 x752 -1 x466 -1 x465 = 0 ;
+2 x856 +1 x857 -1 x648 -1 x578 -1 x575 = 0 ;
+2 x923 +1 x924 -1 x703 -1 x645 -1 x706 = 0 ;
+2 x972 +1 x973 -1 x749 -1 x752 = 0 ;
+2 x1055 +1 x1056 -1 x924 -1 x857 -1 x854 = 0 ;
+2 x1118 +1 x1119 -1 x970 -1 x921 -1 x973 = 0 ;
+2 x1201 +1 x1202 -1 x1119 -1 x1056 -1 x1053 = 0 ;
+1 x1116 -1 x1256 = 0 ;
+2 x1311 +1 x1312 -1 x1256 -1 x1202 -1 x1199 = 0 ;
+2 x1399 +1 x1400 -1 x1309 -1 x1312 = 0 ;
+1 x1894 = 0 ;
+2 x579 +1 x580 -1 x469 -1 x467 -1 x468 = 0 ;
+2 x649 +1 x650 -1 x472 -1 x470 -1 x471 = 0 ;
+2 x707 +1 x708 -1 x475 -1 x473 -1 x474 = 0 ;
+1 x476 -1 x753 = 0 ;
+2 x858 +1 x859 -1 x650 -1 x580 -1 x577 = 0 ;
+2 x925 +1 x926 -1 x705 -1 x647 -1 x708 = 0 ;
+2 x974 +1 x975 -1 x751 -1 x753 = 0 ;
+2 x1057 +1 x1058 -1 x926 -1 x859 -1 x856 = 0 ;
+2 x1120 +1 x1121 -1 x972 -1 x923 -1 x975 = 0 ;
+2 x1203 +1 x1204 -1 x1121 -1 x1058 -1 x1055 = 0 ;
+1 x1118 -1 x1257 = 0 ;
+2 x1313 +1 x1314 -1 x1257 -1 x1204 -1 x1201 = 0 ;
+2 x1401 +1 x1402 -1 x1311 -1 x1314 = 0 ;
+1 x1895 = 0 ;
+2 x581 +1 x582 -1 x479 -1 x477 -1 x478 = 0 ;
+2 x651 +1 x652 -1 x482 -1 x480 -1 x481 = 0 ;
+2 x709 +1 x710 -1 x485 -1 x483 -1 x484 = 0 ;
+2 x860 +1 x861 -1 x652 -1 x582 -1 x579 = 0 ;
+2 x927 +1 x928 -1 x707 -1 x649 -1 x710 = 0 ;
+2 x1059 +1 x1060 -1 x928 -1 x861 -1 x858 = 0 ;
+2 x1122 +1 x1123 -1 x974 -1 x925 = 0 ;
+2 x1205 +1 x1206 -1 x1123 -1 x1060 -1 x1057 = 0 ;
+1 x1120 -1 x1258 = 0 ;
+2 x1315 +1 x1316 -1 x1258 -1 x1206 -1 x1203 = 0 ;
+2 x1403 +1 x1404 -1 x1313 -1 x1316 = 0 ;
+1 x1896 = 0 ;
+2 x583 +1 x584 -1 x488 -1 x486 -1 x487 = 0 ;
+2 x653 +1 x654 -1 x491 -1 x489 -1 x490 = 0 ;
+2 x711 +1 x712 -1 x493 -1 x492 = 0 ;
+2 x862 +1 x863 -1 x654 -1 x584 -1 x581 = 0 ;
+2 x929 +1 x930 -1 x709 -1 x651 -1 x712 = 0 ;
+2 x1061 +1 x1062 -1 x930 -1 x863 -1 x860 = 0 ;
+1 x927 -1 x1124 = 0 ;
+2 x1207 +1 x1208 -1 x1124 -1 x1062 -1 x1059 = 0 ;
+1 x1122 -1 x1259 = 0 ;
+2 x1317 +1 x1318 -1 x1259 -1 x1208 -1 x1205 = 0 ;
+2 x1405 +1 x1406 -1 x1315 -1 x1318 = 0 ;
+1 x1897 = 0 ;
+2 x585 +1 x586 -1 x496 -1 x494 -1 x495 = 0 ;
+2 x655 +1 x656 -1 x499 -1 x497 -1 x498 = 0 ;
+1 x500 -1 x713 = 0 ;
+2 x864 +1 x865 -1 x656 -1 x586 -1 x583 = 0 ;
+2 x931 +1 x932 -1 x711 -1 x653 -1 x713 = 0 ;
+2 x1063 +1 x1064 -1 x932 -1 x865 -1 x862 = 0 ;
+1 x929 -1 x1125 = 0 ;
+2 x1209 +1 x1210 -1 x1125 -1 x1064 -1 x1061 = 0 ;
+2 x1319 +1 x1320 -1 x1207 -1 x1210 = 0 ;
+2 x1407 +1 x1408 -1 x1317 -1 x1320 = 0 ;
+1 x1898 = 0 ;
+2 x587 +1 x588 -1 x503 -1 x501 -1 x502 = 0 ;
+2 x657 +1 x658 -1 x506 -1 x504 -1 x505 = 0 ;
+2 x866 +1 x867 -1 x658 -1 x588 -1 x585 = 0 ;
+1 x655 -1 x933 = 0 ;
+2 x1065 +1 x1066 -1 x933 -1 x867 -1 x864 = 0 ;
+1 x931 -1 x1126 = 0 ;
+2 x1211 +1 x1212 -1 x1126 -1 x1066 -1 x1063 = 0 ;
+2 x1321 +1 x1322 -1 x1209 -1 x1212 = 0 ;
+2 x1409 +1 x1410 -1 x1319 -1 x1322 = 0 ;
+1 x1899 = 0 ;
+2 x589 +1 x590 -1 x509 -1 x507 -1 x508 = 0 ;
+2 x659 +1 x660 -1 x511 -1 x510 = 0 ;
+2 x868 +1 x869 -1 x660 -1 x590 -1 x587 = 0 ;
+1 x657 -1 x934 = 0 ;
+2 x1067 +1 x1068 -1 x934 -1 x869 -1 x866 = 0 ;
+2 x1213 +1 x1214 -1 x1065 -1 x1068 = 0 ;
+2 x1323 +1 x1324 -1 x1211 -1 x1214 = 0 ;
+2 x1411 +1 x1412 -1 x1321 -1 x1324 = 0 ;
+1 x1900 = 0 ;
+2 x591 +1 x592 -1 x514 -1 x512 -1 x513 = 0 ;
+1 x515 -1 x661 = 0 ;
+2 x870 +1 x871 -1 x661 -1 x592 -1 x589 = 0 ;
+1 x659 -1 x935 = 0 ;
+2 x1069 +1 x1070 -1 x935 -1 x871 -1 x868 = 0 ;
+2 x1215 +1 x1216 -1 x1067 -1 x1070 = 0 ;
+2 x1325 +1 x1326 -1 x1213 -1 x1216 = 0 ;
+2 x1413 +1 x1414 -1 x1323 -1 x1326 = 0 ;
+1 x1901 = 0 ;
+2 x593 +1 x594 -1 x518 -1 x516 -1 x517 = 0 ;
+2 x872 +1 x873 -1 x591 -1 x594 = 0 ;
+2 x1071 +1 x1072 -1 x870 -1 x873 = 0 ;
+2 x1217 +1 x1218 -1 x1069 -1 x1072 = 0 ;
+2 x1327 +1 x1328 -1 x1215 -1 x1218 = 0 ;
+2 x1415 +1 x1416 -1 x1325 -1 x1328 = 0 ;
+1 x1902 = 0 ;
+2 x595 +1 x596 -1 x520 -1 x519 = 0 ;
+2 x874 +1 x875 -1 x593 -1 x596 = 0 ;
+2 x1073 +1 x1074 -1 x872 -1 x875 = 0 ;
+2 x1219 +1 x1220 -1 x1071 -1 x1074 = 0 ;
+2 x1329 +1 x1330 -1 x1217 -1 x1220 = 0 ;
+2 x1417 +1 x1418 -1 x1327 -1 x1330 = 0 ;
+1 x1903 = 0 ;
+1 x521 -1 x597 = 0 ;
+2 x876 +1 x877 -1 x595 -1 x597 = 0 ;
+2 x1075 +1 x1076 -1 x874 -1 x877 = 0 ;
+2 x1221 +1 x1222 -1 x1073 -1 x1076 = 0 ;
+2 x1331 +1 x1332 -1 x1219 -1 x1222 = 0 ;
+2 x1419 +1 x1420 -1 x1329 -1 x1332 = 0 ;
+1 x1904 = 0 ;
+1 x876 -1 x1077 = 0 ;
+2 x1223 +1 x1224 -1 x1075 -1 x1077 = 0 ;
+2 x1333 +1 x1334 -1 x1221 -1 x1224 = 0 ;
+2 x1421 +1 x1422 -1 x1331 -1 x1334 = 0 ;
+1 x1223 -1 x1335 = 0 ;
+2 x1423 +1 x1424 -1 x1333 -1 x1335 = 0 ;
+1 x1425 -1 x122 = 0 ;
+1 x1426 -1 x124 = 0 ;
+1 x1427 -1 x127 = 0 ;
+1 x1428 -1 x131 = 0 ;
+1 x1429 -1 x136 = 0 ;
+1 x1430 -1 x142 = 0 ;
+1 x1431 -1 x149 = 0 ;
+1 x1432 -1 x157 = 0 ;
+1 x1433 -1 x166 = 0 ;
+1 x1434 -1 x176 = 0 ;
+1 x1435 -1 x187 = 0 ;
+1 x1436 -1 x199 = 0 ;
+1 x1437 -1 x212 = 0 ;
+1 x1438 -1 x226 = 0 ;
+1 x1439 -1 x241 = 0 ;
+1 x1440 -1 x257 = 0 ;
+1 x1441 -1 x274 = 0 ;
+1 x1442 -1 x292 = 0 ;
+1 x1443 -1 x311 = 0 ;
+1 x1444 -1 x331 = 0 ;
+1 x1445 -1 x123 = 0 ;
+1 x1446 -1 x126 = 0 ;
+1 x1447 -1 x130 = 0 ;
+1 x1448 -1 x135 = 0 ;
+1 x1449 -1 x141 = 0 ;
+1 x1450 -1 x148 = 0 ;
+1 x1451 -1 x156 = 0 ;
+1 x1452 -1 x165 = 0 ;
+1 x1453 -1 x175 = 0 ;
+1 x1454 -1 x186 = 0 ;
+1 x1455 -1 x198 = 0 ;
+1 x1456 -1 x211 = 0 ;
+1 x1457 -1 x225 = 0 ;
+1 x1458 -1 x240 = 0 ;
+1 x1459 -1 x256 = 0 ;
+1 x1460 -1 x273 = 0 ;
+1 x1461 -1 x291 = 0 ;
+1 x1462 -1 x310 = 0 ;
+1 x1463 -1 x330 = 0 ;
+1 x1464 -1 x350 = 0 ;
+1 x1465 -1 x125 = 0 ;
+1 x1466 -1 x129 = 0 ;
+1 x1467 -1 x134 = 0 ;
+1 x1468 -1 x140 = 0 ;
+1 x1469 -1 x147 = 0 ;
+1 x1470 -1 x155 = 0 ;
+1 x1471 -1 x164 = 0 ;
+1 x1472 -1 x174 = 0 ;
+1 x1473 -1 x185 = 0 ;
+1 x1474 -1 x197 = 0 ;
+1 x1475 -1 x210 = 0 ;
+1 x1476 -1 x224 = 0 ;
+1 x1477 -1 x239 = 0 ;
+1 x1478 -1 x255 = 0 ;
+1 x1479 -1 x272 = 0 ;
+1 x1480 -1 x290 = 0 ;
+1 x1481 -1 x309 = 0 ;
+1 x1482 -1 x329 = 0 ;
+1 x1483 -1 x349 = 0 ;
+1 x1484 -1 x368 = 0 ;
+1 x1485 -1 x128 = 0 ;
+1 x1486 -1 x133 = 0 ;
+1 x1487 -1 x139 = 0 ;
+1 x1488 -1 x146 = 0 ;
+1 x1489 -1 x154 = 0 ;
+1 x1490 -1 x163 = 0 ;
+1 x1491 -1 x173 = 0 ;
+1 x1492 -1 x184 = 0 ;
+1 x1493 -1 x196 = 0 ;
+1 x1494 -1 x209 = 0 ;
+1 x1495 -1 x223 = 0 ;
+1 x1496 -1 x238 = 0 ;
+1 x1497 -1 x254 = 0 ;
+1 x1498 -1 x271 = 0 ;
+1 x1499 -1 x289 = 0 ;
+1 x1500 -1 x308 = 0 ;
+1 x1501 -1 x328 = 0 ;
+1 x1502 -1 x348 = 0 ;
+1 x1503 -1 x367 = 0 ;
+1 x1504 -1 x385 = 0 ;
+1 x1505 -1 x132 = 0 ;
+1 x1506 -1 x138 = 0 ;
+1 x1507 -1 x145 = 0 ;
+1 x1508 -1 x153 = 0 ;
+1 x1509 -1 x162 = 0 ;
+1 x1510 -1 x172 = 0 ;
+1 x1511 -1 x183 = 0 ;
+1 x1512 -1 x195 = 0 ;
+1 x1513 -1 x208 = 0 ;
+1 x1514 -1 x222 = 0 ;
+1 x1515 -1 x237 = 0 ;
+1 x1516 -1 x253 = 0 ;
+1 x1517 -1 x270 = 0 ;
+1 x1518 -1 x288 = 0 ;
+1 x1519 -1 x307 = 0 ;
+1 x1520 -1 x327 = 0 ;
+1 x1521 -1 x347 = 0 ;
+1 x1522 -1 x366 = 0 ;
+1 x1523 -1 x384 = 0 ;
+1 x1524 -1 x401 = 0 ;
+1 x1525 -1 x137 = 0 ;
+1 x1526 -1 x144 = 0 ;
+1 x1527 -1 x152 = 0 ;
+1 x1528 -1 x161 = 0 ;
+1 x1529 -1 x171 = 0 ;
+1 x1530 -1 x182 = 0 ;
+1 x1531 -1 x194 = 0 ;
+1 x1532 -1 x207 = 0 ;
+1 x1533 -1 x221 = 0 ;
+1 x1534 -1 x236 = 0 ;
+1 x1535 -1 x252 = 0 ;
+1 x1536 -1 x269 = 0 ;
+1 x1537 -1 x287 = 0 ;
+1 x1538 -1 x306 = 0 ;
+1 x1539 -1 x326 = 0 ;
+1 x1540 -1 x346 = 0 ;
+1 x1541 -1 x365 = 0 ;
+1 x1542 -1 x383 = 0 ;
+1 x1543 -1 x400 = 0 ;
+1 x1544 -1 x416 = 0 ;
+1 x1545 -1 x143 = 0 ;
+1 x1546 -1 x151 = 0 ;
+1 x1547 -1 x160 = 0 ;
+1 x1548 -1 x170 = 0 ;
+1 x1549 -1 x181 = 0 ;
+1 x1550 -1 x193 = 0 ;
+1 x1551 -1 x206 = 0 ;
+1 x1552 -1 x220 = 0 ;
+1 x1553 -1 x235 = 0 ;
+1 x1554 -1 x251 = 0 ;
+1 x1555 -1 x268 = 0 ;
+1 x1556 -1 x286 = 0 ;
+1 x1557 -1 x305 = 0 ;
+1 x1558 -1 x325 = 0 ;
+1 x1559 -1 x345 = 0 ;
+1 x1560 -1 x364 = 0 ;
+1 x1561 -1 x382 = 0 ;
+1 x1562 -1 x399 = 0 ;
+1 x1563 -1 x415 = 0 ;
+1 x1564 -1 x430 = 0 ;
+1 x1565 -1 x150 = 0 ;
+1 x1566 -1 x159 = 0 ;
+1 x1567 -1 x169 = 0 ;
+1 x1568 -1 x180 = 0 ;
+1 x1569 -1 x192 = 0 ;
+1 x1570 -1 x205 = 0 ;
+1 x1571 -1 x219 = 0 ;
+1 x1572 -1 x234 = 0 ;
+1 x1573 -1 x250 = 0 ;
+1 x1574 -1 x267 = 0 ;
+1 x1575 -1 x285 = 0 ;
+1 x1576 -1 x304 = 0 ;
+1 x1577 -1 x324 = 0 ;
+1 x1578 -1 x344 = 0 ;
+1 x1579 -1 x363 = 0 ;
+1 x1580 -1 x381 = 0 ;
+1 x1581 -1 x398 = 0 ;
+1 x1582 -1 x414 = 0 ;
+1 x1583 -1 x429 = 0 ;
+1 x1584 -1 x443 = 0 ;
+1 x1585 -1 x158 = 0 ;
+1 x1586 -1 x168 = 0 ;
+1 x1587 -1 x179 = 0 ;
+1 x1588 -1 x191 = 0 ;
+1 x1589 -1 x204 = 0 ;
+1 x1590 -1 x218 = 0 ;
+1 x1591 -1 x233 = 0 ;
+1 x1592 -1 x249 = 0 ;
+1 x1593 -1 x266 = 0 ;
+1 x1594 -1 x284 = 0 ;
+1 x1595 -1 x303 = 0 ;
+1 x1596 -1 x323 = 0 ;
+1 x1597 -1 x343 = 0 ;
+1 x1598 -1 x362 = 0 ;
+1 x1599 -1 x380 = 0 ;
+1 x1600 -1 x397 = 0 ;
+1 x1601 -1 x413 = 0 ;
+1 x1602 -1 x428 = 0 ;
+1 x1603 -1 x442 = 0 ;
+1 x1604 -1 x455 = 0 ;
+1 x1605 -1 x167 = 0 ;
+1 x1606 -1 x178 = 0 ;
+1 x1607 -1 x190 = 0 ;
+1 x1608 -1 x203 = 0 ;
+1 x1609 -1 x217 = 0 ;
+1 x1610 -1 x232 = 0 ;
+1 x1611 -1 x248 = 0 ;
+1 x1612 -1 x265 = 0 ;
+1 x1613 -1 x283 = 0 ;
+1 x1614 -1 x302 = 0 ;
+1 x1615 -1 x322 = 0 ;
+1 x1616 -1 x342 = 0 ;
+1 x1617 -1 x361 = 0 ;
+1 x1618 -1 x379 = 0 ;
+1 x1619 -1 x396 = 0 ;
+1 x1620 -1 x412 = 0 ;
+1 x1621 -1 x427 = 0 ;
+1 x1622 -1 x441 = 0 ;
+1 x1623 -1 x454 = 0 ;
+1 x1624 -1 x466 = 0 ;
+1 x1625 -1 x177 = 0 ;
+1 x1626 -1 x189 = 0 ;
+1 x1627 -1 x202 = 0 ;
+1 x1628 -1 x216 = 0 ;
+1 x1629 -1 x231 = 0 ;
+1 x1630 -1 x247 = 0 ;
+1 x1631 -1 x264 = 0 ;
+1 x1632 -1 x282 = 0 ;
+1 x1633 -1 x301 = 0 ;
+1 x1634 -1 x321 = 0 ;
+1 x1635 -1 x341 = 0 ;
+1 x1636 -1 x360 = 0 ;
+1 x1637 -1 x378 = 0 ;
+1 x1638 -1 x395 = 0 ;
+1 x1639 -1 x411 = 0 ;
+1 x1640 -1 x426 = 0 ;
+1 x1641 -1 x440 = 0 ;
+1 x1642 -1 x453 = 0 ;
+1 x1643 -1 x465 = 0 ;
+1 x1644 -1 x476 = 0 ;
+1 x1645 -1 x188 = 0 ;
+1 x1646 -1 x201 = 0 ;
+1 x1647 -1 x215 = 0 ;
+1 x1648 -1 x230 = 0 ;
+1 x1649 -1 x246 = 0 ;
+1 x1650 -1 x263 = 0 ;
+1 x1651 -1 x281 = 0 ;
+1 x1652 -1 x300 = 0 ;
+1 x1653 -1 x320 = 0 ;
+1 x1654 -1 x340 = 0 ;
+1 x1655 -1 x359 = 0 ;
+1 x1656 -1 x377 = 0 ;
+1 x1657 -1 x394 = 0 ;
+1 x1658 -1 x410 = 0 ;
+1 x1659 -1 x425 = 0 ;
+1 x1660 -1 x439 = 0 ;
+1 x1661 -1 x452 = 0 ;
+1 x1662 -1 x464 = 0 ;
+1 x1663 -1 x475 = 0 ;
+1 x1664 -1 x485 = 0 ;
+1 x1665 -1 x200 = 0 ;
+1 x1666 -1 x214 = 0 ;
+1 x1667 -1 x229 = 0 ;
+1 x1668 -1 x245 = 0 ;
+1 x1669 -1 x262 = 0 ;
+1 x1670 -1 x280 = 0 ;
+1 x1671 -1 x299 = 0 ;
+1 x1672 -1 x319 = 0 ;
+1 x1673 -1 x339 = 0 ;
+1 x1674 -1 x358 = 0 ;
+1 x1675 -1 x376 = 0 ;
+1 x1676 -1 x393 = 0 ;
+1 x1677 -1 x409 = 0 ;
+1 x1678 -1 x424 = 0 ;
+1 x1679 -1 x438 = 0 ;
+1 x1680 -1 x451 = 0 ;
+1 x1681 -1 x463 = 0 ;
+1 x1682 -1 x474 = 0 ;
+1 x1683 -1 x484 = 0 ;
+1 x1684 -1 x493 = 0 ;
+1 x1685 -1 x213 = 0 ;
+1 x1686 -1 x228 = 0 ;
+1 x1687 -1 x244 = 0 ;
+1 x1688 -1 x261 = 0 ;
+1 x1689 -1 x279 = 0 ;
+1 x1690 -1 x298 = 0 ;
+1 x1691 -1 x318 = 0 ;
+1 x1692 -1 x338 = 0 ;
+1 x1693 -1 x357 = 0 ;
+1 x1694 -1 x375 = 0 ;
+1 x1695 -1 x392 = 0 ;
+1 x1696 -1 x408 = 0 ;
+1 x1697 -1 x423 = 0 ;
+1 x1698 -1 x437 = 0 ;
+1 x1699 -1 x450 = 0 ;
+1 x1700 -1 x462 = 0 ;
+1 x1701 -1 x473 = 0 ;
+1 x1702 -1 x483 = 0 ;
+1 x1703 -1 x492 = 0 ;
+1 x1704 -1 x500 = 0 ;
+1 x1705 -1 x227 = 0 ;
+1 x1706 -1 x243 = 0 ;
+1 x1707 -1 x260 = 0 ;
+1 x1708 -1 x278 = 0 ;
+1 x1709 -1 x297 = 0 ;
+1 x1710 -1 x317 = 0 ;
+1 x1711 -1 x337 = 0 ;
+1 x1712 -1 x356 = 0 ;
+1 x1713 -1 x374 = 0 ;
+1 x1714 -1 x391 = 0 ;
+1 x1715 -1 x407 = 0 ;
+1 x1716 -1 x422 = 0 ;
+1 x1717 -1 x436 = 0 ;
+1 x1718 -1 x449 = 0 ;
+1 x1719 -1 x461 = 0 ;
+1 x1720 -1 x472 = 0 ;
+1 x1721 -1 x482 = 0 ;
+1 x1722 -1 x491 = 0 ;
+1 x1723 -1 x499 = 0 ;
+1 x1724 -1 x506 = 0 ;
+1 x1725 -1 x242 = 0 ;
+1 x1726 -1 x259 = 0 ;
+1 x1727 -1 x277 = 0 ;
+1 x1728 -1 x296 = 0 ;
+1 x1729 -1 x316 = 0 ;
+1 x1730 -1 x336 = 0 ;
+1 x1731 -1 x355 = 0 ;
+1 x1732 -1 x373 = 0 ;
+1 x1733 -1 x390 = 0 ;
+1 x1734 -1 x406 = 0 ;
+1 x1735 -1 x421 = 0 ;
+1 x1736 -1 x435 = 0 ;
+1 x1737 -1 x448 = 0 ;
+1 x1738 -1 x460 = 0 ;
+1 x1739 -1 x471 = 0 ;
+1 x1740 -1 x481 = 0 ;
+1 x1741 -1 x490 = 0 ;
+1 x1742 -1 x498 = 0 ;
+1 x1743 -1 x505 = 0 ;
+1 x1744 -1 x511 = 0 ;
+1 x1745 -1 x258 = 0 ;
+1 x1746 -1 x276 = 0 ;
+1 x1747 -1 x295 = 0 ;
+1 x1748 -1 x315 = 0 ;
+1 x1749 -1 x335 = 0 ;
+1 x1750 -1 x354 = 0 ;
+1 x1751 -1 x372 = 0 ;
+1 x1752 -1 x389 = 0 ;
+1 x1753 -1 x405 = 0 ;
+1 x1754 -1 x420 = 0 ;
+1 x1755 -1 x434 = 0 ;
+1 x1756 -1 x447 = 0 ;
+1 x1757 -1 x459 = 0 ;
+1 x1758 -1 x470 = 0 ;
+1 x1759 -1 x480 = 0 ;
+1 x1760 -1 x489 = 0 ;
+1 x1761 -1 x497 = 0 ;
+1 x1762 -1 x504 = 0 ;
+1 x1763 -1 x510 = 0 ;
+1 x1764 -1 x515 = 0 ;
+1 x1765 -1 x275 = 0 ;
+1 x1766 -1 x294 = 0 ;
+1 x1767 -1 x314 = 0 ;
+1 x1768 -1 x334 = 0 ;
+1 x1769 -1 x353 = 0 ;
+1 x1770 -1 x371 = 0 ;
+1 x1771 -1 x388 = 0 ;
+1 x1772 -1 x404 = 0 ;
+1 x1773 -1 x419 = 0 ;
+1 x1774 -1 x433 = 0 ;
+1 x1775 -1 x446 = 0 ;
+1 x1776 -1 x458 = 0 ;
+1 x1777 -1 x469 = 0 ;
+1 x1778 -1 x479 = 0 ;
+1 x1779 -1 x488 = 0 ;
+1 x1780 -1 x496 = 0 ;
+1 x1781 -1 x503 = 0 ;
+1 x1782 -1 x509 = 0 ;
+1 x1783 -1 x514 = 0 ;
+1 x1784 -1 x518 = 0 ;
+1 x1785 -1 x293 = 0 ;
+1 x1786 -1 x313 = 0 ;
+1 x1787 -1 x333 = 0 ;
+1 x1788 -1 x352 = 0 ;
+1 x1789 -1 x370 = 0 ;
+1 x1790 -1 x387 = 0 ;
+1 x1791 -1 x403 = 0 ;
+1 x1792 -1 x418 = 0 ;
+1 x1793 -1 x432 = 0 ;
+1 x1794 -1 x445 = 0 ;
+1 x1795 -1 x457 = 0 ;
+1 x1796 -1 x468 = 0 ;
+1 x1797 -1 x478 = 0 ;
+1 x1798 -1 x487 = 0 ;
+1 x1799 -1 x495 = 0 ;
+1 x1800 -1 x502 = 0 ;
+1 x1801 -1 x508 = 0 ;
+1 x1802 -1 x513 = 0 ;
+1 x1803 -1 x517 = 0 ;
+1 x1804 -1 x520 = 0 ;
+1 x1805 -1 x312 = 0 ;
+1 x1806 -1 x332 = 0 ;
+1 x1807 -1 x351 = 0 ;
+1 x1808 -1 x369 = 0 ;
+1 x1809 -1 x386 = 0 ;
+1 x1810 -1 x402 = 0 ;
+1 x1811 -1 x417 = 0 ;
+1 x1812 -1 x431 = 0 ;
+1 x1813 -1 x444 = 0 ;
+1 x1814 -1 x456 = 0 ;
+1 x1815 -1 x467 = 0 ;
+1 x1816 -1 x477 = 0 ;
+1 x1817 -1 x486 = 0 ;
+1 x1818 -1 x494 = 0 ;
+1 x1819 -1 x501 = 0 ;
+1 x1820 -1 x507 = 0 ;
+1 x1821 -1 x512 = 0 ;
+1 x1822 -1 x516 = 0 ;
+1 x1823 -1 x519 = 0 ;
+1 x1824 -1 x521 = 0 ;
+2 x1825 +1 x1 -1 x1349 -1 x1865 = 0 ;
+2 x1826 +1 x2 -1 x1350 -1 x1825 -1 x1866 = 0 ;
+2 x1827 +1 x3 -1 x1351 -1 x1826 -1 x1867 = 0 ;
+2 x1828 +1 x4 -1 x1352 -1 x1827 -1 x1868 = 0 ;
+2 x1829 +1 x5 -1 x1353 -1 x1828 -1 x1869 = 0 ;
+2 x1830 +1 x6 -1 x1354 -1 x1829 -1 x1870 = 0 ;
+2 x1831 +1 x7 -1 x1356 -1 x1830 -1 x1871 = 0 ;
+2 x1832 +1 x8 -1 x1358 -1 x1831 -1 x1355 = 0 ;
+2 x1833 +1 x9 -1 x1360 -1 x1832 -1 x1357 = 0 ;
+2 x1834 +1 x10 -1 x1362 -1 x1833 -1 x1359 = 0 ;
+2 x1835 +1 x11 -1 x1364 -1 x1834 -1 x1361 = 0 ;
+2 x1836 +1 x12 -1 x1366 -1 x1835 -1 x1363 = 0 ;
+2 x1837 +1 x13 -1 x1368 -1 x1836 -1 x1365 = 0 ;
+2 x1838 +1 x14 -1 x1370 -1 x1837 -1 x1367 = 0 ;
+2 x1839 +1 x15 -1 x1372 -1 x1838 -1 x1369 = 0 ;
+2 x1840 +1 x16 -1 x1374 -1 x1839 -1 x1371 = 0 ;
+2 x1841 +1 x17 -1 x1376 -1 x1840 -1 x1373 = 0 ;
+2 x1842 +1 x18 -1 x1378 -1 x1841 -1 x1375 = 0 ;
+2 x1843 +1 x19 -1 x1380 -1 x1842 -1 x1377 = 0 ;
+2 x1844 +1 x20 -1 x1382 -1 x1843 -1 x1379 = 0 ;
+2 x1845 +1 x21 -1 x1384 -1 x1844 -1 x1381 = 0 ;
+2 x1846 +1 x22 -1 x1386 -1 x1845 -1 x1383 = 0 ;
+2 x1847 +1 x23 -1 x1388 -1 x1846 -1 x1385 = 0 ;
+2 x1848 +1 x24 -1 x1390 -1 x1847 -1 x1387 = 0 ;
+2 x1849 +1 x25 -1 x1392 -1 x1848 -1 x1389 = 0 ;
+2 x1850 +1 x26 -1 x1394 -1 x1849 -1 x1391 = 0 ;
+2 x1851 +1 x27 -1 x1396 -1 x1850 -1 x1393 = 0 ;
+2 x1852 +1 x28 -1 x1398 -1 x1851 -1 x1395 = 0 ;
+2 x1853 +1 x29 -1 x1400 -1 x1852 -1 x1397 = 0 ;
+2 x1854 +1 x30 -1 x1402 -1 x1853 -1 x1399 = 0 ;
+2 x1855 +1 x31 -1 x1404 -1 x1854 -1 x1401 = 0 ;
+2 x1856 +1 x32 -1 x1406 -1 x1855 -1 x1403 = 0 ;
+2 x1857 +1 x33 -1 x1408 -1 x1856 -1 x1405 = 0 ;
+2 x1858 +1 x34 -1 x1410 -1 x1857 -1 x1407 = 0 ;
+2 x1859 +1 x35 -1 x1412 -1 x1858 -1 x1409 = 0 ;
+2 x1860 +1 x36 -1 x1414 -1 x1859 -1 x1411 = 0 ;
+2 x1861 +1 x37 -1 x1416 -1 x1860 -1 x1413 = 0 ;
+2 x1862 +1 x38 -1 x1418 -1 x1861 -1 x1415 = 0 ;
+2 x1863 +1 x39 -1 x1420 -1 x1862 -1 x1417 = 0 ;
+2 x1864 +1 x40 -1 x1422 -1 x1863 -1 x1419 = 0 ;
+1 x1864 -1 x41 = 0 ;
